db/data/294011689694991689527138188522122731767.z3.out
unsat
-------------------
30.886893673
